% seed = 6156619

mint = 40;
% maxt = 121;

nActs = 22;
dur = [0,9,8,8,3,9,6,10,9,3,5,4,7,6,6,4,2,4,5,8,5,0];

nSkills = 4;
sreq = [| 0,0,0,0,
	| 2,0,3,3,
	| 2,2,0,1,
	| 1,3,1,0,
	| 0,1,2,2,
	| 0,3,1,3,
	| 3,1,3,0,
	| 1,1,0,2,
	| 1,2,0,1,
	| 2,0,2,1,
	| 2,1,0,2,
	| 2,0,2,2,
	| 2,0,3,2,
	| 2,2,3,0,
	| 3,0,2,3,
	| 1,0,1,3,
	| 0,2,3,2,
	| 3,0,2,3,
	| 2,0,3,2,
	| 2,0,2,1,
	| 3,1,0,1,
	| 0,0,0,0, |];

nResources = 10;
mastery = [| false,true,true,true,
	| true,true,false,true,
	| true,false,true,true,
	| false,true,false,false,
	| true,true,false,true,
	| false,false,true,true,
	| true,true,true,false,
	| false,false,false,true,
	| true,false,false,false,
	| true,false,true,true, |];

nPrecs = 37;
pred = [1,1,1,2,2,2,3,3,3,4,4,5,5,5,6,7,7,8,9,10,10,11,11,12,13,13,13,14,14,15,16,16,17,18,19,20,21];
succ = [2,3,4,12,6,14,9,11,12,5,16,10,13,7,19,14,8,12,15,19,20,18,20,18,18,20,14,17,21,17,17,21,19,21,22,22,22];

nUnrels = 113;
unpred = [2,2,2,2,2,2,2,2,2,2,2,2,3,3,3,3,3,3,3,3,3,4,4,4,4,5,5,5,5,5,6,6,6,6,6,6,6,6,6,6,6,6,6,6,7,7,7,7,7,7,7,8,8,8,8,8,8,8,8,8,8,9,9,9,9,9,9,9,9,9,10,10,10,10,10,10,10,10,10,11,11,11,11,11,11,11,12,12,12,12,12,12,12,13,13,14,14,14,14,15,15,15,15,16,16,17,17,17,18,18,19,19,20];
unsucc = [3,4,5,7,8,9,10,11,13,15,16,20,4,5,6,7,8,10,13,14,16,6,9,11,15,6,9,11,15,16,7,8,9,10,11,12,13,14,15,16,17,18,20,21,9,10,11,13,15,16,20,9,10,11,13,14,15,16,17,19,20,10,11,12,13,14,16,18,20,21,11,12,13,14,15,16,17,18,21,12,13,14,15,16,17,19,13,14,15,16,17,19,20,15,16,15,16,18,20,16,18,20,21,18,20,18,20,21,19,20,20,21,21];

USEFUL_RES = [{},
	{1,2,3,5,6,7,8,9,10},
	{1,2,3,4,5,6,7,8,9,10},
	{1,2,3,4,5,6,7,9,10},
	{1,2,3,4,5,6,7,8,10},
	{1,2,3,4,5,6,7,8,10},
	{1,2,3,4,5,6,7,9,10},
	{1,2,3,4,5,6,7,8,9,10},
	{1,2,3,4,5,6,7,8,9,10},
	{1,2,3,5,6,7,8,9,10},
	{1,2,3,4,5,6,7,8,9,10},
	{1,2,3,5,6,7,8,9,10},
	{1,2,3,5,6,7,8,9,10},
	{1,2,3,4,5,6,7,9,10},
	{1,2,3,5,6,7,8,9,10},
	{1,2,3,5,6,7,8,9,10},
	{1,2,3,4,5,6,7,8,10},
	{1,2,3,5,6,7,8,9,10},
	{1,2,3,5,6,7,8,9,10},
	{1,2,3,5,6,7,8,9,10},
	{1,2,3,4,5,6,7,8,9,10},
	{}];

POTENTIAL_ACT = [{2,3,4,5,6,7,8,9,10,11,12,13,14,15,16,17,18,19,20,21},
	{2,3,4,5,6,7,8,9,10,11,12,13,14,15,16,17,18,19,20,21},
	{2,3,4,5,6,7,8,9,10,11,12,13,14,15,16,17,18,19,20,21},
	{3,4,5,6,7,8,9,11,14,17,21},
	{2,3,4,5,6,7,8,9,10,11,12,13,14,15,16,17,18,19,20,21},
	{2,3,4,5,6,7,8,9,10,11,12,13,14,15,16,17,18,19,20,21},
	{2,3,4,5,6,7,8,9,10,11,12,13,14,15,16,17,18,19,20,21},
	{2,3,5,6,8,9,10,11,12,13,15,16,17,18,19,20,21},
	{2,3,4,7,8,9,10,11,12,13,14,15,16,18,19,20,21},
	{2,3,4,5,6,7,8,9,10,11,12,13,14,15,16,17,18,19,20,21}];
